13,8,16,7,12,1,5,10,15,4,14,9,3,6,2,11,
13,8,16,7,4,1,5,12,14,10,15,9,3,6,2,11,
13,8,1,7,4,16,5,12,14,10,15,9,3,6,2,11,
13,8,1,7,15,16,5,12,14,10,4,9,3,6,2,11,
13,8,3,7,15,16,5,12,14,10,4,9,1,6,2,11,
13,8,3,7,15,16,5,1,14,10,4,9,12,6,2,11,
13,9,3,7,15,16,5,1,14,10,4,8,12,6,2,11,
13,9,3,7,15,16,5,1,14,10,4,8,12,11,2,6,
13,9,3,11,15,16,5,1,14,10,4,8,12,7,2,6,
13,9,8,11,15,16,5,1,14,10,4,3,12,7,2,6,
13,9,12,11,15,16,5,1,14,10,4,3,8,7,2,6,
13,9,12,11,3,16,5,1,14,10,4,15,8,7,2,6,
13,9,12,11,3,16,5,1,14,8,4,15,10,7,2,6,
13,9,12,11,3,16,5,1,14,8,4,15,10,7,2,6,
13,9,12,1,3,16,5,11,14,8,4,15,10,7,2,6,
13,3,12,1,9,16,5,11,14,8,4,15,10,7,2,6,
13,3,12,1,9,16,5,8,14,11,4,15,10,7,2,6,
13,3,12,1,9,16,5,8,14,11,4,15,10,7,2,6,
13,3,12,1,16,9,5,8,14,11,4,15,10,7,2,6,
13,3,12,1,16,9,5,8,14,11,4,15,2,7,10,6,
13,3,12,1,16,9,5,8,14,11,4,15,2,10,7,6,
13,3,12,1,16,9,5,8,14,11,15,4,2,10,7,6,
13,3,12,1,16,9,5,8,14,11,15,6,2,10,7,4,
6,3,12,1,16,9,5,8,14,11,15,13,2,10,7,4,
6,3,1,12,16,9,5,8,14,11,15,13,2,10,7,4,
6,3,1,12,16,9,5,8,14,4,15,13,2,10,7,11,
6,3,1,12,16,9,5,8,14,4,15,13,10,2,7,11,
6,10,1,12,16,9,5,8,14,4,15,13,3,2,7,11,
6,10,1,11,16,9,5,8,14,4,15,13,3,2,7,12,
6,10,1,11,16,9,5,14,8,4,15,13,3,2,7,12,
6,10,1,11,16,9,5,14,8,4,15,13,12,2,7,3,
6,10,1,11,9,16,5,14,8,4,15,13,12,2,7,3,
6,10,1,11,9,16,8,14,5,4,15,13,12,2,7,3,
6,10,1,11,9,16,8,14,5,4,15,13,12,7,2,3,
6,10,1,11,9,16,8,14,5,4,15,13,12,7,2,3,
6,10,1,11,9,4,8,14,5,16,15,13,12,7,2,3,
6,13,1,11,9,4,8,14,5,16,15,10,12,7,2,3,
6,13,1,11,9,4,8,14,5,16,15,10,12,7,2,3,
6,13,1,11,9,4,5,14,8,16,15,10,12,7,2,3,
6,13,1,11,9,15,5,14,8,16,4,10,12,7,2,3,
6,13,1,3,9,15,5,14,8,16,4,10,12,7,2,11,
5,13,1,3,9,15,6,14,8,16,4,10,12,7,2,11,
5,13,1,3,9,15,6,14,8,16,4,10,12,7,2,11,
5,13,1,3,9,15,6,14,8,16,4,10,12,7,2,11,
5,13,1,3,9,15,6,14,8,16,11,10,12,7,2,4,
5,13,1,3,9,15,6,14,8,16,10,11,12,7,2,4,
5,13,1,3,9,7,6,14,8,16,10,11,12,15,2,4,
5,13,1,3,9,7,6,10,8,16,14,11,12,15,2,4,
5,13,1,3,9,8,6,10,7,16,14,11,12,15,2,4,
5,13,3,1,9,8,6,10,7,16,14,11,12,15,2,4,
5,13,3,1,9,8,6,10,7,16,14,4,12,15,2,11,
5,13,3,1,9,8,6,10,7,16,14,4,12,15,11,2,
5,13,3,1,9,8,6,10,7,16,14,4,12,15,11,2,
10,13,3,1,9,8,6,5,7,16,14,4,12,15,11,2,
10,13,3,1,9,8,6,5,7,16,14,4,12,15,11,2,
16,13,3,1,9,8,6,5,7,10,14,4,12,15,11,2,
16,13,3,1,9,8,2,5,7,10,14,4,12,15,11,6,
16,13,3,1,9,8,2,5,7,10,6,4,12,15,11,14,
16,6,3,1,9,8,2,5,7,10,13,4,12,15,11,14,
16,14,3,1,9,8,2,5,7,10,13,4,12,15,11,6,
16,14,3,1,9,7,2,5,8,10,13,4,12,15,11,6,
16,14,12,1,9,7,2,5,8,10,13,4,3,15,11,6,
16,14,12,1,9,7,2,5,8,10,13,4,3,15,11,6,
16,14,12,1,9,7,2,11,8,10,13,4,3,15,5,6,
16,14,15,1,9,7,2,11,8,10,13,4,3,12,5,6,
16,14,15,1,9,7,2,11,8,10,13,4,3,12,5,6,
16,14,15,1,9,7,2,11,8,10,13,4,3,12,5,6,
16,14,15,1,9,3,2,11,8,10,13,4,7,12,5,6,
16,15,14,1,9,3,2,11,8,10,13,4,7,12,5,6,
16,8,14,1,9,3,2,11,15,10,13,4,7,12,5,6,
16,8,12,1,9,3,2,11,15,10,13,4,7,14,5,6,
16,8,12,1,9,11,2,3,15,10,13,4,7,14,5,6,
16,8,12,1,9,6,2,3,15,10,13,4,7,14,5,11,
16,8,14,1,9,6,2,3,15,10,13,4,7,12,5,11,
16,8,14,1,9,6,2,3,15,10,13,4,7,12,5,11,
16,8,6,1,9,14,2,3,15,10,13,4,7,12,5,11,
16,14,6,1,9,8,2,3,15,10,13,4,7,12,5,11,
16,14,6,1,9,8,2,3,15,11,13,4,7,12,5,10,
16,14,6,1,9,8,2,3,15,11,13,4,5,12,7,10,
16,14,6,8,9,1,2,3,15,11,13,4,5,12,7,10,
16,14,6,8,9,1,2,13,15,11,3,4,5,12,7,10,
16,14,6,8,9,1,2,13,15,11,3,4,5,12,7,10,
16,14,6,8,9,1,2,13,15,11,5,4,3,12,7,10,
16,14,15,8,9,1,2,13,6,11,5,4,3,12,7,10,
16,14,15,8,9,1,2,13,6,11,5,4,3,12,7,10,
16,14,15,8,11,1,2,13,6,9,5,4,3,12,7,10,
16,14,15,8,11,1,2,13,6,9,5,4,3,12,7,10,
16,14,15,8,11,1,2,13,6,9,5,4,12,3,7,10,
16,14,15,8,11,1,2,13,6,9,5,7,12,3,4,10,
16,14,15,10,11,1,2,13,6,9,5,7,12,3,4,8,
16,14,15,10,1,11,2,13,6,9,5,7,12,3,4,8,
16,14,15,10,1,11,2,13,6,9,5,7,12,3,4,8,
16,14,15,10,1,11,2,13,6,9,5,7,12,4,3,8,
16,14,9,10,1,11,2,13,6,15,5,7,12,4,3,8,
16,14,9,10,1,11,2,13,6,7,5,15,12,4,3,8,
16,14,9,10,1,11,2,13,6,7,5,15,12,4,3,8,
16,14,9,10,1,11,2,13,6,7,5,15,12,4,3,8,
16,14,11,10,1,9,2,13,6,7,5,15,12,4,3,8,
16,14,11,10,1,9,2,13,6,7,3,15,12,4,5,8,
16,14,11,10,1,9,2,13,6,7,3,15,12,4,5,8,
16,14,11,10,1,9,2,4,6,7,3,15,12,13,5,8,
16,14,2,10,1,9,11,4,6,7,3,15,12,13,5,8,
16,14,2,10,1,4,11,9,6,7,3,15,12,13,5,8,
16,14,2,10,1,4,11,9,15,7,3,6,12,13,5,8,
16,14,2,10,1,4,11,9,3,7,15,6,12,13,5,8,
16,14,2,10,1,4,11,9,3,7,15,6,12,13,5,8,
16,1,2,10,14,4,11,9,3,7,15,6,12,13,5,8,
16,1,2,10,15,4,11,9,3,7,14,6,12,13,5,8,
16,1,2,10,15,4,11,8,3,7,14,6,12,13,5,9,
16,1,2,10,15,4,13,8,3,7,14,6,12,11,5,9,
7,1,2,10,15,4,13,8,3,16,14,6,12,11,5,9,
7,1,5,10,15,4,13,8,3,16,14,6,12,11,2,9,
7,1,5,10,15,4,13,8,3,14,16,6,12,11,2,9,
7,1,5,10,15,4,2,8,3,14,16,6,12,11,13,9,
7,1,12,10,15,4,2,8,3,14,16,6,5,11,13,9,
9,1,12,10,15,4,2,8,3,14,16,6,5,11,13,7,
9,1,12,10,5,4,2,8,3,14,16,6,15,11,13,7,
9,1,7,10,5,4,2,8,3,14,16,6,15,11,13,12,
9,10,7,1,5,4,2,8,3,14,16,6,15,11,13,12,
9,10,7,1,5,4,2,8,3,14,16,6,15,11,13,12,
9,10,7,1,5,4,2,8,3,14,16,6,13,11,15,12,
9,10,7,1,5,4,2,8,3,14,16,6,13,11,15,12,
4,16,6,14,5,1,3,11,15,13,2,12,8,7,9,10,
4,16,6,14,5,1,3,7,15,13,2,12,8,11,9,10,
4,16,6,14,5,1,3,7,15,13,2,12,8,11,9,10,
4,16,6,14,5,1,3,2,15,13,7,12,8,11,9,10,
4,16,6,14,5,1,3,2,15,13,7,12,11,8,9,10,
4,16,6,14,5,1,3,2,15,13,7,12,11,8,9,10,
4,16,6,14,5,1,3,15,2,13,7,12,11,8,9,10,
4,16,6,14,5,1,3,15,2,13,7,12,8,11,9,10,
4,16,6,14,5,1,3,15,2,13,7,12,8,11,9,10,
4,16,6,14,5,1,3,15,8,13,7,12,2,11,9,10,
4,16,6,14,5,1,3,15,8,13,7,12,2,11,9,10,
4,16,6,14,5,1,3,15,8,13,7,12,2,11,9,10,
4,2,6,14,5,1,3,15,8,13,7,12,16,11,9,10,
4,2,6,14,5,1,3,15,8,13,9,12,16,11,7,10,
4,2,6,14,5,1,3,15,8,13,9,12,16,11,7,10,
4,2,6,14,5,1,10,15,8,13,9,12,16,11,7,3,
4,2,6,14,5,1,10,15,8,13,9,12,16,11,7,3,
4,2,6,14,5,1,9,15,8,13,10,12,16,11,7,3,
4,2,6,14,5,1,9,15,8,13,10,12,16,11,7,3,
4,2,6,14,5,1,9,15,8,13,10,12,16,11,7,3,
4,2,6,14,5,1,9,15,8,13,12,10,16,11,7,3,
4,2,6,14,5,1,9,15,8,13,12,10,16,11,7,3,
4,2,6,14,5,1,9,15,8,13,12,10,16,11,7,3,
4,2,6,14,5,1,9,15,8,13,12,10,16,11,7,3,
4,2,6,14,5,1,9,15,8,13,12,10,16,11,7,3,
4,2,6,14,5,1,9,15,8,13,12,10,16,11,7,3,
4,2,6,14,11,1,9,15,8,13,12,10,16,5,7,3,
4,2,6,3,11,1,9,15,8,13,12,10,16,5,7,14,
4,2,6,3,11,1,9,15,8,13,12,16,10,5,7,14,
4,2,6,3,11,1,9,15,8,13,12,16,10,5,7,14,
4,2,6,3,11,5,9,15,8,13,12,16,10,1,7,14,
4,2,6,1,11,5,9,15,8,13,12,16,10,3,7,14,
4,2,6,1,11,5,9,15,13,8,12,16,10,3,7,14,
4,2,6,1,5,11,9,15,13,8,12,16,10,3,7,14,
4,2,6,1,5,11,9,15,13,8,12,16,10,3,7,14,
4,2,6,1,5,11,9,15,13,8,10,16,12,3,7,14,
4,2,6,1,5,11,9,15,13,8,10,16,12,3,7,14,
4,2,6,1,5,11,9,15,13,8,10,16,12,3,7,14,
4,2,6,1,5,11,9,15,13,8,10,16,12,3,7,14,
4,2,6,1,5,13,9,15,11,8,10,16,12,3,7,14,
4,2,6,1,5,13,9,15,11,14,10,16,12,3,7,8,
4,2,6,1,5,13,9,15,11,14,10,16,12,3,7,8,
4,2,6,1,5,13,9,15,11,14,10,16,12,3,7,8,
4,2,6,1,5,13,9,15,11,14,10,12,16,3,7,8,
4,2,6,1,5,13,9,15,11,14,10,12,16,3,7,8,
4,2,6,5,1,13,9,15,11,14,10,12,16,3,7,8,
4,8,6,5,1,13,9,15,11,14,10,12,16,3,7,2,
4,8,6,5,1,13,9,15,11,14,10,12,16,3,7,2,
4,8,7,5,1,13,9,15,11,14,10,12,16,3,6,2,
4,8,7,5,1,13,9,15,11,14,10,12,16,3,6,2,
4,8,7,5,1,13,9,15,11,14,10,12,16,3,6,2,
4,8,7,5,1,13,9,15,11,14,10,2,16,3,6,12,
4,8,7,5,1,13,9,15,11,14,10,2,16,3,6,12,
4,8,7,5,1,13,9,15,11,14,10,2,16,3,12,6,
4,8,7,5,1,13,9,15,11,14,10,2,16,3,12,6,
4,8,7,5,15,13,9,1,11,14,10,2,16,3,12,6,
4,8,7,5,15,13,9,1,11,14,10,2,16,3,12,6,
4,8,7,5,15,13,9,1,11,14,10,2,16,3,12,6,
4,8,7,5,15,13,9,1,11,14,10,2,16,3,12,6,
4,8,7,5,15,13,9,1,11,14,10,2,16,3,12,6,
4,8,7,5,15,13,9,1,11,14,10,16,2,3,12,6,
6,8,7,5,15,13,9,1,11,14,10,16,2,3,12,4,
6,8,7,5,15,13,9,1,11,14,10,16,2,3,12,4,
6,8,7,5,15,13,9,1,11,14,10,16,2,3,12,4,
6,8,7,5,15,13,3,1,11,14,10,16,2,9,12,4,
6,8,7,5,15,13,3,1,11,14,10,16,2,9,12,4,
6,8,7,5,15,13,3,1,11,14,10,16,2,9,12,4,
6,8,7,5,15,13,3,12,11,14,10,16,2,9,1,4,
6,8,13,5,15,7,3,12,11,14,10,16,2,9,1,4,
6,8,13,5,15,7,3,12,11,14,10,16,2,9,1,4,
6,8,13,5,15,7,3,12,11,14,10,16,2,9,1,4,
6,8,13,5,15,7,3,12,11,14,10,16,2,9,1,4,
6,8,13,5,15,7,3,12,11,14,10,16,2,9,1,4,
6,8,13,5,15,7,3,12,11,14,10,16,2,9,1,4,
6,8,4,5,15,7,3,12,11,14,10,16,2,9,1,13,
6,8,4,5,15,7,3,12,11,14,10,13,2,9,1,16,
6,8,4,5,15,7,3,12,11,14,10,9,2,13,1,16,
6,8,4,5,15,7,3,12,11,14,10,9,2,13,1,16,
6,8,4,5,15,7,3,12,11,14,1,9,2,13,10,16,
6,8,9,5,15,7,3,12,11,14,1,4,2,13,10,16,
6,8,9,5,15,7,3,12,11,14,1,4,2,13,10,16,
6,8,9,5,15,7,3,12,11,14,1,4,2,13,10,16,
6,8,9,5,15,7,4,12,11,14,1,3,2,13,10,16,
6,8,9,5,15,7,4,12,11,16,1,3,2,13,10,14,
6,8,9,5,15,7,4,12,11,16,1,3,2,13,10,14,
6,8,9,5,15,7,4,12,11,16,1,3,2,13,10,14,
6,8,9,5,15,7,4,12,11,16,1,3,2,13,10,14,
6,5,9,8,15,7,4,12,11,16,1,3,2,13,10,14,
6,5,13,8,15,7,4,12,11,16,1,3,2,9,10,14,
6,5,13,8,15,7,4,12,11,16,14,3,2,9,10,1,
6,5,13,8,15,7,4,12,11,16,14,3,2,9,10,1,
6,5,13,8,15,7,4,12,11,16,14,3,2,9,10,1,
6,5,13,8,15,7,4,12,11,3,14,16,2,9,10,1,
14,5,13,8,15,7,4,12,11,3,6,16,2,9,10,1,
14,5,13,8,15,7,4,12,11,3,6,16,2,9,10,1,
14,5,13,8,15,7,4,12,10,3,6,16,2,9,11,1,
14,5,13,8,15,7,4,12,10,3,6,16,2,9,11,1,
14,5,13,8,15,7,4,12,10,2,6,16,3,9,11,1,
14,5,13,8,15,7,4,12,10,2,6,16,3,9,11,1,
14,16,13,8,15,7,4,12,10,2,6,5,3,9,11,1,
14,16,13,8,15,7,4,12,10,2,6,5,3,9,11,1,
14,16,13,8,15,7,4,12,10,2,6,5,3,9,1,11,
14,16,13,8,15,7,4,12,10,2,11,5,3,9,1,6,
14,16,13,8,15,7,4,12,10,2,11,5,3,9,1,6,
14,16,13,8,15,7,4,12,10,2,11,5,3,9,1,6,
14,16,13,8,15,7,4,12,10,2,11,5,3,9,1,6,
14,16,13,8,15,7,4,12,10,2,11,5,3,9,1,6,
14,16,13,8,15,7,4,12,10,2,11,5,3,9,1,6,
14,16,13,8,15,7,4,12,10,2,11,5,3,9,1,6,
14,16,13,8,15,7,4,12,10,9,11,5,3,2,1,6,
14,16,13,8,15,7,4,12,10,9,11,5,3,2,1,6,
14,16,13,8,15,7,4,12,10,9,11,5,3,2,1,6,
14,16,13,8,15,7,4,12,10,9,11,5,3,2,1,6,
14,16,13,8,15,7,4,12,10,9,11,5,3,2,1,6,
14,16,13,8,15,9,4,12,10,7,11,5,3,2,1,6,
14,16,13,12,15,9,4,8,10,7,11,5,3,2,1,6,
14,16,13,12,15,9,4,8,10,7,11,5,3,2,1,6,
14,16,13,12,15,9,4,8,10,7,11,5,3,2,1,6,
14,16,13,12,15,1,4,8,10,7,11,5,3,2,9,6,
14,16,13,12,15,1,4,8,10,7,11,5,3,2,9,6,
14,16,13,12,15,1,4,8,10,7,11,5,9,2,3,6,
13,14,10,2,12,4,11,1,3,16,8,7,6,15,9,5,
13,14,10,2,12,4,11,1,3,16,8,7,6,15,9,5,
13,15,10,2,12,4,11,1,3,16,8,7,6,14,9,5,
13,15,10,2,12,4,11,1,3,16,8,7,6,14,9,5,
13,15,10,2,12,4,11,1,3,5,8,7,6,14,9,16,
13,15,10,2,12,4,11,1,3,5,8,7,6,14,9,16,
13,15,10,6,12,4,11,1,3,5,8,7,2,14,9,16,
13,15,10,6,1,4,11,12,3,5,8,7,2,14,9,16,
13,15,10,6,1,4,11,12,3,5,8,7,2,14,9,16,
7,15,10,6,1,4,11,12,3,5,8,13,2,14,9,16,
13,15,10,6,1,4,11,12,3,5,8,7,2,14,9,16,
13,15,10,6,1,4,11,12,3,5,8,7,2,14,9,16,
13,15,10,6,1,4,11,12,3,5,8,7,2,14,9,16,
13,15,10,6,1,4,11,12,3,5,8,16,2,14,9,7,
13,15,10,6,1,4,11,12,3,5,8,16,2,14,9,7,
13,15,10,6,2,4,11,12,3,5,8,16,1,14,9,7,
13,15,10,6,2,4,11,12,3,5,8,16,1,14,9,7,
13,15,10,6,2,4,11,12,3,5,8,16,1,14,9,7,
13,15,10,6,2,4,11,12,3,5,8,16,1,14,9,7,
13,15,10,6,2,4,11,12,3,16,8,5,1,14,9,7,
13,15,10,6,2,4,11,12,3,16,8,5,1,14,9,7,
13,15,10,6,2,4,11,12,3,16,8,5,1,14,9,7,
13,15,10,6,2,4,11,12,3,16,8,5,1,7,9,14,
13,15,10,14,2,4,11,12,3,16,8,5,1,7,9,6,
13,15,10,14,2,4,11,12,3,6,8,5,1,7,9,16,
13,15,10,14,2,4,11,12,3,6,8,5,1,7,9,16,
13,16,10,14,2,4,11,12,3,6,8,5,1,7,9,15,
13,16,10,14,2,4,11,12,3,6,8,5,1,7,9,15,
13,16,10,14,2,4,11,12,3,6,8,5,1,7,9,15,
13,16,10,14,2,4,11,12,3,6,8,5,1,7,9,15,
13,16,10,14,2,4,11,12,3,6,8,5,1,7,9,15,
13,16,10,14,2,4,11,12,3,6,8,5,1,7,9,15,
13,16,10,14,2,4,11,12,3,6,8,5,1,7,9,15,
13,16,10,14,2,4,11,12,3,6,8,5,1,7,9,15,
13,16,10,14,2,4,11,12,3,6,8,5,1,7,9,15,
13,16,10,14,2,4,11,12,3,6,8,5,1,7,9,15,
13,16,10,14,2,4,11,12,3,6,8,7,1,5,9,15,
13,16,10,14,2,4,11,12,3,6,8,7,1,5,9,15,
13,5,10,14,2,4,11,12,3,6,8,7,1,16,9,15,
13,5,10,14,2,4,11,12,3,6,8,7,1,16,9,15,
13,5,10,14,2,12,11,4,3,6,8,7,1,16,9,15,
13,5,10,14,2,12,11,4,3,6,8,7,1,16,9,15,
13,5,10,14,2,12,11,4,3,6,8,7,1,16,9,15,
13,5,10,14,2,12,11,4,3,6,8,7,1,16,9,15,
13,9,10,14,2,12,11,4,3,6,8,7,1,16,5,15,
13,9,10,14,2,12,11,4,3,6,8,7,1,16,5,15,
13,9,10,14,2,12,11,4,3,6,8,7,1,16,5,15,
13,9,10,14,2,12,11,4,3,6,8,7,1,16,5,15,
13,9,10,14,2,12,11,4,3,6,8,7,1,16,5,15,
13,9,10,14,2,12,11,4,3,6,8,7,1,16,5,15,
13,9,10,14,2,12,11,4,3,6,8,7,1,16,5,15,
13,9,10,14,2,12,11,4,3,16,8,7,1,6,5,15,
13,9,10,14,2,12,11,4,3,16,8,7,1,6,5,15,
2,9,10,14,13,12,11,4,3,16,8,7,1,6,5,15,
2,9,10,14,13,12,11,4,3,16,8,7,1,6,5,15,
2,9,10,14,13,12,11,4,3,16,8,7,1,6,5,15,
2,9,10,14,13,12,11,4,3,16,8,7,1,6,5,15,
2,9,10,14,13,12,11,4,3,16,8,7,1,6,5,15,
2,9,10,14,13,12,11,4,3,16,1,7,8,6,5,15,
2,9,10,14,13,12,11,4,3,16,1,7,8,6,5,15,
2,9,10,14,13,12,11,4,3,16,1,7,8,6,5,15,
2,9,10,14,13,12,11,4,3,16,1,7,8,6,5,15,
2,9,10,14,13,12,11,4,3,16,1,15,8,6,5,7,
2,9,10,14,13,12,11,4,8,16,1,15,3,6,5,7,
2,9,10,14,13,12,11,4,8,16,1,15,6,3,5,7,
2,9,10,14,13,12,11,4,8,16,1,15,6,3,5,7,
2,9,10,14,13,12,11,4,8,16,1,15,6,3,5,7,
2,9,10,14,13,12,11,4,1,16,8,15,6,3,5,7,
2,9,10,14,13,12,11,4,1,16,8,15,6,3,5,7,
2,9,10,14,13,7,11,4,1,16,8,15,6,3,5,12,
2,9,10,14,13,7,11,4,1,16,8,15,6,3,5,12,
2,9,10,14,13,7,11,4,1,16,8,15,6,3,5,12,
2,9,10,14,13,7,11,4,1,16,8,15,6,3,5,12,
2,9,10,14,13,7,11,4,1,16,8,5,6,3,15,12,
2,9,10,14,13,7,11,3,1,16,8,5,6,4,15,12,
2,9,10,14,13,7,11,3,1,16,8,5,6,4,15,12,
10,9,2,14,13,7,11,3,1,16,8,5,6,4,15,12,
10,9,2,14,13,7,11,3,1,16,8,5,6,4,15,12,
10,9,2,14,13,7,11,3,1,16,8,5,6,4,15,12,
10,9,2,14,13,7,11,3,1,16,8,5,6,4,15,12,
10,9,2,14,13,7,11,3,4,16,8,5,6,1,15,12,
10,9,2,14,13,7,11,3,5,16,8,4,6,1,15,12,
10,9,2,14,13,7,11,3,5,16,8,4,6,1,15,12,
10,9,2,14,13,7,11,3,5,16,8,4,6,1,15,12,
10,9,2,14,13,7,11,3,5,16,8,4,6,1,15,12,
10,9,16,14,13,7,11,3,5,2,8,4,6,1,15,12,
10,9,16,14,13,7,11,3,5,2,8,4,6,1,15,12,
10,9,16,14,13,11,7,3,5,2,8,4,6,1,15,12,
10,9,2,14,13,11,7,3,5,16,8,4,6,1,15,12,
10,9,2,14,13,11,7,3,5,16,8,4,6,1,15,12,
10,9,2,14,13,11,7,3,5,16,8,12,6,1,15,4,
10,9,2,14,13,11,7,1,5,16,8,12,6,3,15,4,
10,9,2,14,13,11,7,1,5,16,8,12,6,15,3,4,
10,9,2,14,13,16,7,1,5,11,8,12,6,15,3,4,
10,9,2,14,13,16,7,1,5,11,8,12,6,15,3,4,
10,9,2,14,13,16,7,1,5,11,8,3,6,15,12,4,
10,9,2,14,13,16,7,1,5,11,8,3,6,15,12,4,
10,9,2,14,13,16,7,1,5,11,8,3,6,15,12,4,
10,9,2,14,13,16,7,1,5,11,8,3,6,12,15,4,
10,9,12,14,13,16,7,1,5,11,8,3,6,2,15,4,
10,9,12,14,13,16,7,1,5,11,8,3,6,2,15,4,
10,9,12,14,13,16,7,1,5,11,8,3,6,2,15,4,
10,9,12,14,13,16,7,1,5,6,8,3,11,2,15,4,
10,9,12,14,13,16,7,1,5,6,8,3,11,2,15,4,
11,9,12,14,13,16,7,1,5,6,8,3,10,2,15,4,
11,9,12,14,13,16,7,1,5,6,8,3,10,2,15,4,
11,9,12,14,8,16,7,1,5,6,13,3,10,2,15,4,
11,9,12,14,8,16,7,1,5,6,13,3,10,2,15,4,
11,9,2,14,8,16,7,1,5,6,13,3,10,12,15,4,
11,9,2,14,8,16,7,1,5,6,13,3,10,12,15,4,
11,9,2,14,8,16,6,1,5,7,13,3,10,12,15,4,
11,9,2,14,6,16,8,1,5,7,13,3,10,12,15,4,
11,9,2,14,6,16,8,1,5,7,13,3,10,12,15,4,
11,9,2,14,6,16,8,1,5,7,13,3,10,15,12,4,
11,9,2,14,6,16,8,1,5,7,10,3,13,15,12,4,
11,9,13,14,6,16,8,1,5,7,10,3,2,15,12,4,
11,9,13,14,6,16,8,1,5,7,10,3,2,15,12,4,
11,9,13,14,6,16,8,1,5,7,10,3,2,15,12,4,
11,9,13,14,6,16,8,1,5,7,10,3,2,12,15,4,
11,9,13,14,6,2,8,1,5,7,10,3,16,12,15,4,
11,9,13,14,6,2,8,1,5,7,10,3,16,12,15,4,
13,14,10,2,1,5,6,8,7,3,11,4,12,9,15,16,
13,14,10,2,1,5,6,8,7,3,11,4,12,9,15,16,
13,14,10,2,1,5,6,8,7,3,11,4,12,9,15,16,
13,14,10,2,1,5,6,8,7,3,11,4,12,9,15,16,
13,14,10,2,1,5,6,8,7,3,11,4,12,9,15,16,
13,14,10,2,1,5,3,8,7,6,11,4,12,9,15,16,
9,14,10,2,1,5,3,8,7,6,11,4,12,13,15,16,
9,14,10,2,1,5,3,8,7,6,11,4,12,13,15,16,
9,14,10,2,1,5,3,8,7,6,11,4,12,13,15,16,
16,14,10,2,1,5,3,8,7,6,11,4,12,13,15,9,
16,14,10,2,1,5,3,8,7,6,11,4,12,13,15,9,
16,14,10,2,1,5,3,8,7,6,11,4,12,13,15,9,
16,14,10,2,1,5,3,8,7,6,11,4,12,13,15,9,
16,14,10,2,1,5,3,8,7,6,11,4,12,13,15,9,
16,14,10,2,1,4,3,8,7,6,11,5,12,13,15,9,
16,14,10,2,1,4,3,8,7,6,11,5,12,13,15,9,
16,14,10,2,1,4,3,8,7,6,11,5,12,13,15,9,
16,14,10,2,1,4,3,8,7,6,11,5,12,13,15,9,
16,14,10,2,1,4,3,8,7,6,11,5,12,13,15,9,
16,14,10,2,1,4,7,8,3,6,11,5,12,13,15,9,
16,14,10,2,1,4,7,8,3,6,11,5,12,13,15,9,
16,14,10,2,1,4,7,8,3,6,11,5,12,13,15,9,
16,14,10,2,1,7,4,8,3,6,11,5,12,13,15,9,
16,14,10,2,1,7,4,8,3,6,11,5,12,13,15,9,
16,14,10,2,1,7,4,8,3,6,11,5,12,13,15,9,
16,14,10,2,1,7,4,8,3,6,11,5,15,13,12,9,
16,14,10,2,1,7,4,8,3,6,11,5,15,13,12,9,
16,14,10,2,1,7,4,8,3,6,11,5,15,13,12,9,
16,14,10,2,1,7,4,8,3,6,11,5,15,13,12,9,
16,14,10,2,1,7,4,8,3,6,11,5,15,13,12,9,
16,14,10,2,1,7,4,8,3,6,11,5,15,13,12,9,
16,14,10,2,1,7,4,8,3,6,11,9,15,13,12,5,
16,14,10,2,1,7,4,8,3,13,11,9,15,6,12,5,
16,14,10,2,1,7,4,8,3,13,11,9,15,6,12,5,
16,14,10,2,1,7,4,8,3,13,11,9,15,6,12,5,
16,14,10,2,1,7,4,8,3,13,11,9,15,6,12,5,
16,14,10,2,1,7,8,4,3,13,11,9,15,6,12,5,
16,14,10,2,1,7,8,4,3,13,11,9,15,6,12,5,
16,14,10,2,1,7,8,4,3,13,11,9,15,6,12,5,
16,14,10,2,1,7,8,4,3,13,11,9,15,6,12,5,
16,14,10,2,1,7,8,4,3,13,11,9,15,6,12,5,
16,14,10,2,1,7,8,4,3,13,11,9,15,6,12,5,
16,14,10,2,1,7,8,4,3,13,11,9,15,6,12,5,
16,14,10,2,1,7,8,4,3,13,12,9,15,6,11,5,
16,14,10,2,1,6,8,4,3,13,12,9,15,7,11,5,
16,14,10,2,1,6,8,4,3,13,12,9,15,7,11,5,
16,14,10,2,1,6,8,4,3,13,12,9,15,7,11,5,
16,14,10,2,1,6,8,4,3,13,12,9,15,7,11,5,
13,14,10,2,1,6,8,4,3,16,12,9,15,7,11,5,
13,14,10,2,1,6,8,4,3,16,12,9,15,7,11,5,
13,14,10,2,1,6,8,4,3,12,16,9,15,7,11,5,
13,14,10,2,1,6,8,4,3,12,15,9,16,7,11,5,
13,14,10,2,1,6,8,4,3,12,15,9,16,7,11,5,
13,14,10,2,1,6,8,4,3,12,15,9,16,7,11,5,
13,14,10,2,1,6,8,4,3,7,15,9,16,12,11,5,
13,14,10,2,1,6,8,4,3,7,15,9,16,12,11,5,
13,14,10,2,1,6,8,4,3,7,15,9,16,12,11,5,
13,14,10,2,1,6,8,4,3,7,15,9,16,12,11,5,
13,14,10,2,1,6,8,4,3,7,15,9,16,12,11,5,
13,14,10,2,1,6,8,4,3,11,15,9,16,12,7,5,
13,14,10,2,1,6,8,4,3,11,15,9,16,12,7,5,
13,14,10,2,1,6,8,4,3,11,15,9,16,12,7,5,
13,14,10,2,1,6,8,4,3,11,15,9,16,12,7,5,
13,14,10,2,1,6,8,5,3,11,15,9,16,12,7,4,
13,14,10,2,1,6,8,5,3,11,15,9,16,12,7,4,
13,14,10,2,1,6,8,5,3,11,15,9,16,12,7,4,
13,14,10,2,1,6,8,5,3,11,15,9,7,12,16,4,
13,14,10,2,1,6,8,5,3,11,15,9,7,12,16,4,
16,14,10,2,1,6,8,5,3,11,15,9,7,12,13,4,
16,14,10,2,1,6,8,5,3,11,15,9,7,12,13,4,
16,14,10,2,1,6,8,5,3,11,15,9,7,12,13,4,
16,14,10,2,1,6,8,5,3,11,15,9,7,12,4,13,
16,14,10,2,1,6,8,5,3,11,15,9,7,12,4,13,
16,14,10,2,1,6,8,5,3,11,15,9,7,12,4,13,
16,14,10,2,1,6,8,5,3,11,15,9,7,12,4,13,
16,14,10,2,1,6,8,5,3,13,15,9,7,12,4,11,
16,14,10,2,1,6,8,5,3,13,15,9,7,12,4,11,
16,14,10,2,1,6,8,5,3,13,9,15,7,12,4,11,
16,14,10,2,1,6,8,5,3,13,9,15,7,12,4,11,
16,14,10,2,1,6,8,5,3,13,9,15,7,12,4,11,
16,14,10,2,1,6,7,5,3,13,9,15,8,12,4,11,
16,14,10,2,1,6,7,5,3,13,9,15,8,12,4,11,
16,14,10,2,1,6,7,5,3,13,9,15,8,12,4,11,
16,14,10,2,1,6,7,5,13,3,9,15,8,12,4,11,
16,14,10,2,1,6,7,5,13,3,9,15,8,12,4,11,
16,14,10,2,1,6,7,5,13,3,9,15,8,12,4,11,
16,14,10,2,1,6,7,5,13,3,9,15,8,12,4,11,
16,14,10,2,1,6,7,5,13,3,9,15,8,12,4,11,
16,14,10,2,1,6,7,5,13,3,9,15,8,12,4,11,
16,14,10,2,1,6,7,5,13,3,9,15,8,12,4,11,
16,14,10,2,1,6,7,5,13,3,9,15,8,12,4,11,
16,14,10,2,1,6,7,5,13,3,9,15,8,12,4,11,
16,14,10,2,1,6,7,5,13,3,9,15,8,12,4,11,
16,14,10,2,1,6,7,5,13,3,9,15,8,12,4,11,
16,14,10,2,1,6,7,5,13,3,9,15,8,12,4,11,
16,14,10,2,1,6,7,5,13,3,12,15,8,9,4,11,
16,14,10,2,1,6,7,5,13,3,12,15,8,9,4,11,
16,14,10,2,1,6,7,5,13,3,12,15,8,9,4,11,
16,14,10,2,1,6,7,5,13,3,12,15,8,9,4,11,
16,14,10,2,1,6,7,5,13,3,8,15,12,9,4,11,
16,14,10,2,1,6,7,5,13,3,8,15,12,9,4,11,
16,14,10,2,1,6,7,5,13,3,8,15,12,9,4,11,
16,14,10,2,1,6,7,5,13,3,8,15,12,9,4,11,
16,14,10,2,1,6,7,5,13,3,11,15,12,9,4,8,
16,14,10,2,1,6,7,5,13,3,11,15,12,9,4,8,
16,14,10,2,1,6,7,5,13,3,4,15,12,9,11,8,
16,14,10,2,1,6,7,5,13,3,4,15,12,9,11,8,
16,14,4,2,1,6,7,5,13,3,10,15,12,9,11,8,
16,14,4,2,1,6,7,5,13,3,10,15,12,9,11,8,
16,14,4,2,1,6,7,5,13,3,10,15,12,9,11,8,
16,14,4,2,1,6,7,5,13,3,10,15,12,9,11,8,
16,14,4,2,1,6,7,5,13,3,10,15,12,9,11,8,
16,14,4,2,1,6,7,5,13,3,10,15,12,9,11,8,
16,14,4,1,2,6,7,5,13,3,10,15,12,9,11,8,
16,14,4,1,2,6,7,5,13,3,10,15,12,9,11,8,
16,14,4,1,2,6,7,5,13,3,10,15,12,9,11,8,
16,14,4,1,2,6,7,5,13,3,10,15,12,9,11,8,
16,14,4,1,2,6,7,5,13,3,10,15,12,9,11,8,
16,14,4,1,2,6,7,5,13,3,10,15,12,9,11,8,
16,14,4,1,2,6,7,5,13,3,11,15,12,9,10,8,
16,14,4,1,2,6,7,5,13,3,11,15,12,9,10,8,
10,9,11,3,1,5,6,8,4,16,13,14,2,15,7,12,
10,9,11,3,1,5,6,8,4,16,13,14,2,15,7,12,
10,9,11,3,1,5,6,8,4,12,13,14,2,15,7,16,
10,9,11,3,1,5,6,8,4,12,13,14,2,15,7,16,
10,9,11,3,1,5,6,8,4,12,13,14,2,15,7,16,
10,12,11,3,1,5,6,8,4,9,13,14,2,15,7,16,
10,9,11,3,1,5,6,8,4,12,13,14,2,15,7,16,
10,9,11,3,1,5,6,8,4,12,13,14,2,15,7,16,
10,9,11,3,1,5,6,8,4,12,13,14,2,15,7,16,
10,9,11,3,1,5,6,8,4,12,13,14,2,15,7,16,
10,9,11,3,1,5,6,8,4,12,13,7,2,15,14,16,
10,9,11,3,1,5,6,8,4,12,13,7,2,15,14,16,
10,9,11,3,1,5,6,8,4,12,13,7,2,15,14,16,
10,9,11,3,1,5,6,8,4,12,13,7,2,14,15,16,
10,9,11,3,1,5,6,8,4,12,13,7,2,14,15,16,
10,9,11,3,1,5,6,8,4,12,13,7,2,14,15,16,
10,9,11,3,1,5,6,8,4,12,13,7,2,14,15,16,
10,9,11,3,1,5,6,8,4,12,13,7,2,14,15,16,
10,9,11,3,1,5,6,8,4,12,13,7,2,14,15,16,
10,9,11,3,1,5,6,8,4,12,13,7,2,14,15,16,
10,9,11,3,1,5,6,8,4,12,13,7,2,14,15,16,
10,9,11,3,1,5,6,8,4,12,13,7,2,14,15,16,
10,9,11,3,1,5,6,8,4,12,13,7,2,14,15,16,
10,9,11,3,1,5,6,8,4,12,13,7,2,14,15,16,
10,9,11,3,1,5,6,8,4,7,13,12,2,14,15,16,
10,9,11,3,1,5,6,8,4,7,13,12,2,14,15,16,
10,9,11,3,1,5,6,8,4,7,13,12,2,14,15,16,
10,9,11,3,1,5,6,8,4,7,13,12,2,14,15,16,
10,9,11,3,1,5,6,8,4,7,13,12,2,14,15,16,
10,9,11,3,1,5,6,8,4,7,13,12,2,14,15,16,
10,9,11,3,1,5,6,8,4,7,13,12,2,14,15,16,
10,9,11,3,1,5,6,8,4,7,13,12,2,14,15,16,
10,9,11,3,1,5,6,8,4,7,13,12,2,14,15,16,
10,9,11,3,1,5,6,8,4,7,13,12,2,14,15,16,
10,9,11,3,1,5,6,8,7,4,13,12,2,14,15,16,
10,9,11,3,1,5,6,8,7,4,13,12,2,14,15,16,
10,9,11,3,1,5,6,8,7,4,13,12,16,14,15,2,
10,9,11,3,1,5,6,8,7,4,13,12,16,14,15,2,
10,9,11,3,1,5,6,8,7,4,13,12,16,14,15,2,
10,9,11,3,1,5,6,8,7,4,13,12,16,14,15,2,
10,9,11,3,1,5,6,8,7,4,13,12,16,14,15,2,
10,9,11,3,1,5,6,8,7,4,13,12,16,14,15,2,
10,9,11,3,1,5,6,8,7,4,13,15,16,14,12,2,
10,9,11,3,1,5,6,8,7,4,13,15,16,14,12,2,
10,9,11,3,1,5,6,8,7,4,13,15,16,14,12,2,
10,9,11,3,1,5,6,8,7,4,13,15,16,14,12,2,
10,9,11,3,1,5,6,8,7,4,13,15,16,14,12,2,
10,9,11,3,1,5,6,8,7,4,13,15,2,14,12,16,
10,9,11,3,1,5,6,8,7,13,4,15,2,14,12,16,
10,9,11,3,1,5,6,8,7,13,4,15,2,14,12,16,
10,9,11,3,1,5,6,8,7,13,4,2,15,14,12,16,
10,9,11,3,1,5,6,8,7,13,4,2,15,14,12,16,
10,9,11,3,1,5,6,8,7,13,4,2,15,14,12,16,
10,9,11,3,1,5,6,8,7,13,4,2,15,14,12,16,
10,9,11,3,1,5,6,8,7,13,4,2,15,14,12,16,
10,9,11,3,1,5,6,8,7,13,4,2,15,14,12,16,
10,9,11,3,1,5,6,8,7,13,4,2,15,14,12,16,
10,9,11,3,1,5,6,8,7,13,4,2,15,14,12,16,
10,9,11,3,1,5,6,8,7,13,4,2,15,14,12,16,
10,9,11,3,1,5,6,8,7,16,4,2,15,14,12,13,
10,9,11,3,1,5,6,8,7,16,4,2,15,14,12,13,
10,9,11,3,1,5,6,8,7,16,4,2,15,12,14,13,
10,9,11,3,1,5,6,8,7,16,4,2,15,12,14,13,
10,9,11,3,1,5,6,8,7,16,4,2,15,12,14,13,
10,9,11,3,1,5,6,8,7,16,4,2,15,12,14,13,
10,9,11,3,1,5,6,8,7,16,4,2,15,12,14,13,
10,9,11,3,1,5,6,8,7,16,4,2,13,12,14,15,
10,9,11,3,1,5,6,8,7,16,4,2,13,12,14,15,
10,9,11,3,1,5,6,8,7,16,4,2,13,12,14,15,
10,9,11,3,1,5,6,8,7,16,4,2,13,12,14,15,
10,9,11,3,1,5,6,8,7,16,4,2,13,12,14,15,
10,9,11,3,1,5,6,8,7,16,4,2,13,12,14,15,
10,9,11,3,1,5,6,8,7,16,4,2,13,12,14,15,
10,9,11,3,1,5,6,8,7,16,4,2,13,12,14,15,
10,9,11,3,1,5,6,8,7,16,4,2,13,12,14,15,
10,9,11,3,1,5,6,8,7,16,4,2,13,12,14,15,
10,9,11,3,1,5,6,8,7,16,4,2,13,15,14,12,
10,9,11,3,1,5,6,8,7,16,4,2,13,15,14,12,
10,9,11,3,1,5,6,8,7,16,4,2,13,15,14,12,
10,9,11,3,1,5,6,8,7,16,4,2,12,15,14,13,
10,9,11,3,1,5,6,8,4,16,7,2,12,15,14,13,
10,9,11,3,1,5,6,8,4,16,7,2,12,13,14,15,
10,9,11,3,1,5,6,8,4,16,13,2,12,7,14,15,
10,9,11,3,1,5,6,8,4,16,13,2,12,7,14,15,
10,9,11,3,1,5,6,8,4,16,13,2,12,7,14,15,
10,9,11,3,1,5,6,8,7,16,13,2,12,4,14,15,
10,9,11,3,1,5,6,8,7,16,13,2,12,4,14,15,
10,9,11,3,1,5,6,8,7,16,13,2,12,4,14,15,
10,9,11,3,1,5,6,8,7,16,13,2,12,4,14,15,
12,9,11,3,1,5,6,8,7,16,13,2,10,4,14,15,
12,9,11,3,1,5,6,8,7,16,13,2,10,4,14,15,
12,9,11,3,1,5,6,8,7,16,13,2,10,4,14,15,
12,9,11,3,1,5,6,8,7,16,13,2,10,4,14,15,
12,9,11,3,1,5,6,8,4,16,13,2,10,7,14,15,
12,9,11,3,1,5,6,8,4,16,13,2,10,7,14,15,
12,9,11,3,1,5,6,8,4,16,13,10,2,7,14,15,
12,9,11,3,1,5,6,8,7,16,13,10,2,4,14,15,
12,9,11,3,1,5,6,8,7,10,13,16,2,4,14,15,
12,9,11,3,1,5,6,8,7,10,13,16,2,4,14,15,
12,9,11,3,1,5,6,8,7,10,13,16,2,4,14,15,
12,9,11,3,1,5,6,8,7,10,13,16,2,4,14,15,
12,9,11,3,1,5,6,8,7,10,13,16,2,4,14,15,
12,9,11,3,1,5,6,8,7,10,13,16,2,4,14,15,
12,9,11,3,1,5,6,8,7,10,13,16,2,4,14,15,
12,9,11,3,1,5,6,8,7,10,13,16,2,4,14,15,
12,9,11,3,1,5,6,8,7,10,13,16,2,4,14,15,
12,9,11,3,1,5,6,8,7,10,13,14,2,4,16,15,
12,15,11,3,1,5,6,8,7,10,13,14,2,4,16,9,
12,15,11,3,1,5,6,8,7,10,13,14,2,4,16,9,
16,15,11,3,1,5,6,8,7,10,13,14,2,4,12,9,
16,15,11,3,1,5,6,8,7,10,13,14,2,4,12,9,
16,15,11,3,1,5,6,8,7,10,13,14,2,4,12,9,
16,15,11,3,1,5,6,8,7,10,13,14,2,4,12,9,
16,15,11,3,1,5,6,8,7,10,13,14,2,4,12,9,
16,15,11,3,1,5,6,8,7,10,13,14,2,4,12,9,
16,15,11,3,1,5,6,8,7,10,13,14,2,4,12,9,
16,15,11,3,1,5,6,8,7,10,13,14,2,4,12,9,
16,15,11,3,1,5,6,8,7,10,13,14,2,4,12,9,
16,15,11,3,1,5,6,8,7,10,13,14,2,4,12,9,
16,15,11,3,1,5,6,8,7,10,13,14,2,4,12,9,
16,12,11,3,1,5,6,8,7,10,13,14,2,4,15,9,
16,12,11,3,1,5,6,8,7,10,13,14,2,4,15,9,
16,12,11,3,1,5,6,8,7,10,13,14,2,4,15,9,
16,12,11,3,1,5,6,8,7,10,13,14,2,4,15,9,
16,12,11,3,1,5,6,8,7,10,13,14,2,4,15,9,
16,12,11,3,1,5,6,8,7,10,13,14,2,4,15,9,
16,12,11,3,1,5,6,8,7,10,13,14,15,4,2,9,
16,12,11,3,1,5,6,8,7,10,13,14,15,4,2,9,
16,12,11,3,1,5,6,8,7,10,13,14,15,4,2,9,
16,12,11,3,1,5,6,8,7,10,13,14,15,4,2,9,
16,12,11,3,1,5,6,8,7,10,13,14,15,4,2,9,
16,12,11,3,1,5,6,8,7,10,13,14,15,4,2,9,
16,12,11,3,1,5,6,8,7,10,13,14,15,4,2,9,
16,12,11,3,1,5,6,8,7,10,13,4,15,14,2,9,
16,12,11,3,1,5,6,8,7,10,13,4,2,14,15,9,
16,12,11,3,1,5,6,8,7,10,13,4,2,14,15,9,
16,12,11,3,1,5,6,8,7,10,13,4,2,14,15,9,
16,12,11,3,1,5,6,8,7,10,13,4,2,14,15,9,
16,12,11,3,1,5,6,8,7,10,13,4,2,14,15,9,
16,12,11,3,1,5,6,8,7,2,13,4,10,14,15,9,
16,12,11,3,1,5,6,8,7,2,13,4,10,14,15,9,
16,12,11,3,1,5,6,8,7,2,13,4,10,14,15,9,
16,12,11,3,1,5,6,8,7,2,13,4,10,14,15,9,
16,12,11,3,1,5,6,8,7,2,13,4,10,14,15,9,
16,12,11,3,1,5,6,8,7,2,13,4,10,14,15,9,
16,12,11,3,1,5,6,8,7,2,13,4,10,14,15,9,
16,12,11,3,1,5,6,8,7,2,13,4,10,14,15,9,
16,12,11,3,1,5,6,8,7,2,13,4,10,14,15,9,
16,12,11,3,1,5,6,8,7,2,13,4,10,14,15,9,
16,12,11,3,1,5,6,8,7,2,13,4,10,14,15,9,
16,12,11,3,1,5,6,8,7,2,13,4,10,14,15,9,
16,12,11,3,1,5,6,8,7,2,13,4,10,14,15,9,
16,12,4,3,1,5,6,8,7,2,13,11,10,14,15,9,
16,12,4,3,1,5,6,8,7,9,13,11,10,14,15,2,
16,12,4,3,1,5,6,8,7,9,13,11,10,14,15,2,
16,12,4,3,1,5,6,8,7,9,13,11,10,14,15,2,
16,12,4,3,1,5,6,8,7,9,13,11,2,14,15,10,
16,12,4,3,1,5,6,8,7,9,13,11,2,14,15,10,
11,12,4,3,1,5,6,8,7,9,13,16,2,14,15,10,
11,12,4,3,1,5,6,8,7,9,13,16,2,14,15,10,
11,12,4,3,1,5,6,8,7,9,13,16,2,14,15,10,
11,12,4,3,1,5,6,8,7,9,13,16,2,14,15,10,
10,12,4,3,1,5,6,8,7,9,13,16,2,14,15,11,
10,12,4,3,1,5,6,8,7,9,13,16,2,14,15,11,
10,12,4,3,1,5,6,8,7,9,13,16,2,14,15,11,
10,12,4,3,1,5,6,8,7,9,13,16,2,14,15,11,
10,12,4,3,1,5,6,8,7,9,13,16,2,14,15,11,
10,12,4,3,1,5,6,8,7,9,13,16,2,14,15,11,
10,12,4,3,1,5,6,8,7,9,13,16,2,14,15,11,
10,12,4,3,1,5,6,8,7,9,13,16,2,14,15,11,
10,12,4,3,1,5,6,8,7,9,13,16,2,14,15,11,
10,12,4,3,1,5,6,8,7,9,13,16,2,14,15,11,
10,12,4,3,1,5,6,8,7,9,13,16,2,14,15,11,
10,12,11,3,1,5,6,8,7,9,13,16,2,14,15,4,
10,12,11,3,1,5,6,8,7,9,13,16,2,14,15,4,
10,12,11,3,1,5,6,8,7,9,13,16,2,14,15,4,
10,12,11,3,1,5,6,8,7,9,15,16,2,14,13,4,
10,12,11,3,1,5,6,8,7,9,15,16,2,14,13,4,
10,12,11,3,1,5,6,8,7,9,15,16,2,14,13,4,
10,12,11,3,1,5,6,8,7,9,15,16,2,14,13,4,
10,12,11,3,1,5,6,8,7,9,15,16,2,14,13,4,
10,12,11,3,1,5,6,8,7,9,15,16,2,14,13,4,
10,12,11,3,1,5,6,8,7,9,15,16,2,14,13,4,
10,12,11,3,1,5,6,8,7,9,15,16,2,14,13,4,
10,12,11,3,1,5,6,8,7,9,15,16,2,14,13,4,
10,12,11,3,1,5,6,8,7,9,15,16,2,14,13,4,
10,12,11,3,1,5,6,8,7,9,15,16,2,14,13,4,
10,12,11,3,1,5,6,7,8,9,15,16,2,14,13,4,
10,12,11,3,1,5,6,7,8,9,15,16,2,14,13,4,
10,12,11,3,1,5,6,7,8,9,15,16,2,14,13,4,
10,12,11,3,1,5,6,7,8,9,15,16,2,14,13,4,
10,12,11,3,1,5,6,7,8,9,15,16,2,14,13,4,
10,12,11,3,1,5,6,7,8,9,15,16,2,14,13,4,
10,12,11,3,1,5,6,7,8,9,15,16,2,14,13,4,
10,12,11,3,1,5,6,7,8,9,15,16,2,14,13,4,
10,12,11,3,1,5,6,7,8,9,14,16,2,15,13,4,
10,12,11,3,1,5,6,7,8,9,14,16,2,15,13,4,
10,12,11,3,1,5,6,7,8,9,14,16,2,15,13,4,
10,12,11,3,1,5,6,7,8,9,14,16,2,15,13,4,
10,12,11,3,1,5,6,7,8,9,14,16,2,15,13,4,
10,12,11,3,1,5,6,7,8,9,14,16,2,15,13,4,
10,12,11,3,1,5,6,7,8,9,14,16,2,15,13,4,
10,12,11,3,1,5,6,7,8,9,14,16,2,15,13,4,
10,12,11,3,1,5,6,7,8,9,14,16,2,15,13,4,
10,12,11,3,1,5,6,7,8,9,14,16,2,15,13,4,
10,12,11,3,1,5,6,7,8,9,14,16,2,15,13,4,
10,12,11,3,1,5,6,7,8,9,14,16,2,15,13,4,
10,12,11,3,1,5,6,7,8,9,14,16,2,15,13,4,
10,12,11,3,1,5,6,7,8,9,14,16,2,15,13,4,
10,12,11,3,1,5,6,7,8,9,14,16,2,15,13,4,
10,12,11,3,1,5,6,7,8,9,14,16,2,15,13,4,
10,12,11,3,1,5,6,7,8,9,14,16,2,15,13,4,
10,12,11,3,1,5,6,7,8,9,14,15,2,16,13,4,
10,12,11,3,1,5,6,7,8,9,14,15,2,16,13,4,
10,12,11,3,1,5,6,7,8,9,14,15,2,16,13,4,
10,12,11,3,1,5,6,7,8,9,14,15,2,16,13,4,
10,12,11,3,1,5,6,7,8,9,14,15,2,16,13,4,
10,12,11,3,1,5,6,7,8,9,14,15,2,16,13,4,
10,12,11,3,1,5,6,7,8,9,14,15,2,16,13,4,
10,12,11,3,1,5,6,7,8,9,14,15,2,16,13,4,
10,12,11,3,1,5,6,7,8,4,14,15,2,16,13,9,
10,12,11,3,1,5,6,7,8,4,14,15,2,16,13,9,
10,12,11,3,1,5,6,7,8,4,14,15,2,16,13,9,
10,12,11,3,1,5,6,7,8,4,14,15,2,16,13,9,
10,12,11,3,1,5,6,7,8,4,14,15,2,16,13,9,
10,12,11,3,1,5,6,7,8,4,15,14,2,16,13,9,
10,12,11,3,1,5,6,7,8,4,15,14,2,16,13,9,
10,12,11,3,1,5,6,7,8,4,15,14,2,16,13,9,
10,12,11,3,1,5,6,7,8,4,15,14,2,16,13,9,
10,12,11,3,1,5,6,7,8,4,15,14,2,16,13,9,
10,12,11,3,1,5,6,7,8,4,15,14,2,16,13,9,
10,12,11,3,1,5,6,7,8,4,15,14,2,16,13,9,
10,12,11,3,1,5,6,7,8,4,15,14,2,16,13,9,
10,12,11,3,1,5,6,7,8,4,15,14,2,16,13,9,
10,12,11,3,1,5,6,7,8,4,15,14,2,16,13,9,
10,12,11,3,1,5,6,7,8,4,15,14,2,16,13,9,
10,12,11,3,1,5,6,7,8,4,15,14,2,16,13,9,
10,12,11,3,1,5,6,7,8,4,15,14,2,16,13,9,
10,9,11,3,1,5,6,7,8,4,15,14,2,16,13,12,
10,9,11,3,1,5,6,7,8,4,2,14,15,16,13,12,
10,9,11,3,1,5,6,7,8,4,2,14,15,16,13,12,
10,9,11,3,1,5,6,7,8,4,2,14,15,16,13,12,
10,9,11,3,1,5,6,7,8,4,2,14,15,16,13,12,
10,9,11,3,1,5,6,7,8,4,2,14,15,16,13,12,
10,9,11,3,1,5,6,7,8,4,2,14,15,16,13,12,
10,9,11,3,1,5,6,7,8,4,2,14,15,16,13,12,
10,9,11,3,1,5,6,7,8,4,2,14,15,16,13,12,
10,9,11,3,1,5,6,8,7,4,2,14,15,16,13,12,
10,9,11,3,1,5,6,8,7,4,2,14,15,12,13,16,
10,9,11,3,1,5,6,8,7,4,2,14,15,12,13,16,
10,9,11,3,1,5,6,8,7,4,2,14,13,12,15,16,
10,9,11,3,1,5,6,8,7,4,2,14,12,13,15,16,
10,9,11,3,1,5,6,8,7,4,2,14,12,13,15,16,
10,9,11,3,1,5,6,8,7,4,2,14,12,13,15,16,
10,9,11,3,1,5,6,8,7,4,2,14,12,13,15,16,
10,9,11,3,1,5,6,8,7,4,2,14,12,13,15,16,
10,9,11,3,1,5,6,8,7,4,2,14,12,13,15,16,
10,9,11,3,1,5,6,8,7,4,2,14,12,13,15,16,
10,9,11,3,1,5,6,8,7,4,2,14,12,13,15,16,
10,9,11,3,1,5,6,8,7,4,2,14,12,13,15,16,
10,9,11,3,1,5,6,8,7,4,2,14,12,13,15,16,
10,9,11,3,1,5,6,8,7,4,2,14,13,12,15,16,
10,9,11,3,1,5,6,8,7,4,15,14,13,12,2,16,
10,9,11,3,1,5,6,8,7,4,15,14,13,12,2,16,
10,9,11,3,1,5,6,8,7,4,15,14,13,12,2,16,
10,9,11,3,1,5,6,8,7,4,15,14,13,12,2,16,
10,9,11,3,1,5,6,8,7,4,15,14,13,12,2,16,
10,9,11,3,1,5,6,8,7,4,15,14,13,12,2,16,
10,12,11,3,1,5,6,8,7,4,15,14,13,9,2,16,
10,12,11,3,1,5,6,8,7,4,15,14,13,9,2,16,
10,12,11,3,1,5,6,8,7,4,15,14,13,9,2,16,
10,9,11,3,1,5,6,8,7,4,15,14,13,12,2,16,
10,9,11,3,1,5,6,8,7,4,15,12,13,14,2,16,
10,9,11,3,1,5,6,8,7,4,15,12,13,14,2,16,
10,9,11,3,1,5,6,8,4,7,15,12,13,14,2,16,
10,9,11,3,1,5,6,8,4,7,15,12,13,14,2,16,
10,9,11,3,1,5,6,8,4,7,15,12,13,14,2,16,
10,9,11,3,1,5,6,8,4,7,15,12,13,14,16,2,
10,9,11,3,1,5,6,8,4,7,15,12,13,14,16,2,
10,9,11,3,1,5,6,8,4,7,15,12,13,14,16,2,
10,9,11,3,1,5,6,8,4,7,15,12,13,14,16,2,
10,9,11,3,1,5,6,8,4,7,15,12,13,14,16,2,
10,9,11,3,1,5,6,8,4,7,15,12,13,14,16,2,
10,9,11,3,1,5,6,8,4,7,15,12,13,14,16,2,
10,9,11,3,1,5,6,8,4,7,15,12,13,14,16,2,
10,9,11,3,1,5,6,8,4,7,15,12,13,14,16,2,
10,9,11,3,1,5,6,8,4,7,15,12,13,14,16,2,
10,9,11,3,1,5,6,8,4,7,15,12,13,14,16,2,
10,9,11,3,1,5,6,8,4,7,15,12,13,14,16,2,
10,9,11,3,1,5,6,8,4,7,15,12,13,14,16,2,
10,9,11,3,1,5,6,8,4,7,15,12,13,14,16,2,
10,9,11,3,1,5,6,8,4,7,15,12,13,14,16,2,
10,9,11,3,1,5,6,8,4,7,15,12,13,14,16,2,
10,9,11,3,1,5,6,8,4,7,15,12,13,14,16,2,
10,9,11,3,7,5,6,8,4,1,15,12,13,14,16,2,
10,9,11,3,7,5,6,8,4,1,15,12,13,14,16,2,
13,9,11,3,7,5,6,8,4,1,15,12,10,14,16,2,
13,9,11,3,7,5,6,8,4,1,15,12,10,14,16,2,
13,9,11,3,7,5,6,8,4,1,15,12,14,10,16,2,
13,9,11,3,7,5,6,8,4,1,15,12,14,10,16,2,
13,9,11,3,7,5,6,8,4,1,15,12,14,10,16,2,
13,9,11,3,7,5,6,8,4,1,15,12,14,10,16,2,
13,9,11,3,7,5,6,8,4,1,15,12,14,10,16,2,
13,9,11,3,7,5,6,8,4,1,15,12,14,10,16,2,
13,9,11,3,7,5,6,8,4,1,15,12,14,10,16,2,
13,9,11,3,7,5,6,8,4,1,15,12,14,10,16,2,
13,9,11,3,7,5,6,8,4,1,15,12,14,10,16,2,
13,9,11,3,7,5,6,8,4,1,15,16,14,10,12,2,
13,9,1,3,7,5,6,8,4,11,15,16,14,10,12,2,
13,9,1,3,7,5,6,8,4,11,15,16,14,10,12,2,
13,9,1,3,7,5,6,8,4,11,15,16,14,10,12,2,
13,9,1,3,7,5,6,8,4,11,15,16,12,10,14,2,
13,9,1,3,7,5,6,8,4,11,15,16,12,10,14,2,
13,9,1,3,7,5,6,8,4,11,15,16,12,10,14,2,
13,9,1,3,7,5,6,8,4,11,15,16,12,10,14,2,
13,9,1,3,7,5,6,8,4,11,15,16,12,10,14,2,
13,9,1,3,7,5,6,8,4,11,15,16,12,10,14,2,
13,9,1,3,7,5,6,8,4,11,15,16,12,10,14,2,
13,9,1,3,7,5,6,8,4,11,12,16,15,10,14,2,
13,9,1,3,7,5,6,8,4,11,12,16,15,10,14,2,
13,9,1,3,7,5,6,8,4,11,12,16,15,10,14,2,
13,9,1,3,7,5,6,8,4,11,12,16,15,10,14,2,
13,9,1,3,7,5,6,8,4,11,12,16,15,10,14,2,
13,9,1,3,7,5,6,8,4,11,12,16,15,10,14,2,
13,9,1,3,7,5,6,8,4,11,12,16,15,10,14,2,
13,9,1,3,7,5,6,8,4,11,12,16,15,10,14,2,
10,9,1,3,7,5,6,8,4,11,12,16,15,13,14,2,
10,9,1,3,7,5,6,8,4,11,12,16,15,13,14,2,
10,9,1,3,7,5,6,8,4,11,12,2,15,13,14,16,
10,9,1,3,7,5,6,8,4,11,12,2,15,13,14,16,
10,9,1,3,7,5,6,8,4,11,12,2,15,13,14,16,
10,9,1,3,7,5,6,8,4,11,12,2,15,13,14,16,
10,2,1,3,7,5,6,8,4,11,12,9,15,13,14,16,
10,2,1,3,7,5,6,8,4,11,12,9,15,13,14,16,
10,2,1,3,7,5,6,8,4,11,12,9,15,13,14,16,
10,2,1,3,7,5,6,8,4,11,12,9,15,13,14,16,
10,2,1,3,7,5,6,8,4,11,12,9,15,13,14,16,
10,2,1,3,7,5,6,8,4,11,12,9,15,13,14,16,
10,2,1,3,7,5,6,8,4,11,12,9,15,13,14,16,
10,2,1,3,7,5,6,8,4,11,12,9,15,13,14,16,
10,2,1,3,7,5,6,8,16,11,12,9,15,13,14,4,
10,2,1,3,7,5,6,8,16,11,12,9,15,13,14,4,
10,2,1,3,7,5,6,8,16,11,12,9,15,13,14,4,
10,2,1,3,7,5,6,8,16,11,12,9,15,13,14,4,
10,2,1,3,7,5,6,8,16,11,12,9,15,13,14,4,
10,2,1,3,7,5,6,8,16,11,12,9,15,13,14,4,
10,2,1,3,7,5,6,8,16,13,12,9,15,11,14,4,
10,2,1,3,7,5,6,8,16,13,12,9,15,11,14,4,
10,2,1,3,7,5,6,8,16,13,12,9,15,11,14,4,
10,2,1,3,7,5,6,8,16,11,12,9,15,13,14,4,
10,2,1,3,7,5,6,8,16,11,12,9,15,13,14,4,
10,2,1,3,7,5,8,6,16,11,12,9,15,13,14,4,
10,2,1,3,7,5,8,6,16,11,12,9,15,13,14,4,
10,2,1,3,7,5,8,6,16,11,12,9,15,13,14,4,
10,2,1,3,7,5,8,6,16,11,12,9,15,13,14,4,
10,2,1,3,7,5,8,6,16,11,12,9,15,13,14,4,
10,2,1,3,7,5,8,6,16,11,12,9,15,13,14,4,
10,2,1,3,7,5,8,6,16,11,12,9,15,13,14,4,
10,2,1,3,7,5,8,6,4,11,12,9,15,13,14,16,
10,2,1,3,7,5,8,6,4,11,12,9,15,13,14,16,
10,2,1,3,7,5,8,6,4,11,12,9,15,13,14,16,
10,2,1,3,7,5,8,6,4,11,12,9,15,13,14,16,
10,2,1,3,7,5,8,6,4,11,12,9,15,13,14,16,
14,13,15,11,3,1,5,6,8,9,7,10,12,4,16,2,
14,13,15,11,3,1,5,6,8,9,7,10,12,4,16,2,
14,13,15,11,3,1,5,6,8,4,7,10,12,9,16,2,
14,13,15,11,3,1,5,6,8,4,7,10,9,12,16,2,
14,13,15,11,3,1,5,6,8,4,7,10,9,12,16,2,
14,13,15,11,3,1,5,6,8,4,7,10,9,12,16,2,
14,13,15,11,3,1,5,6,8,4,7,10,9,12,16,2,
14,13,15,11,3,1,5,6,8,4,7,10,9,12,16,2,
14,13,15,11,3,1,5,6,8,4,7,10,9,12,16,2,
14,13,15,11,3,1,5,6,8,4,7,10,9,12,16,2,
14,13,15,11,3,1,5,6,8,4,7,10,9,12,16,2,
14,13,15,11,3,1,5,6,8,4,7,10,9,12,16,2,
14,13,15,11,3,1,5,6,8,4,7,10,9,12,16,2,
14,13,15,11,3,1,5,6,8,4,7,10,9,12,16,2,
14,13,9,11,3,1,5,6,8,4,7,10,15,12,16,2,
14,13,9,11,3,1,5,6,8,4,7,10,15,12,16,2,
14,13,9,11,3,1,5,6,8,10,7,4,15,12,16,2,
14,13,9,11,3,1,5,6,8,10,7,4,15,12,16,2,
14,13,9,11,3,1,5,6,8,10,7,4,15,12,16,2,
14,13,9,11,3,1,5,6,8,10,7,4,15,12,16,2,
14,13,9,11,3,1,5,6,8,10,7,4,15,12,16,2,
14,13,9,11,3,1,5,6,8,10,7,4,15,12,16,2,
14,13,9,11,3,1,5,6,8,10,7,4,15,12,16,2,
14,13,9,11,3,1,5,6,8,10,7,4,15,12,16,2,
14,13,9,11,3,1,5,6,8,10,7,4,15,12,16,2,
14,10,9,11,3,1,5,6,8,13,7,4,15,12,16,2,
14,10,9,11,3,1,5,6,8,13,7,4,15,12,16,2,
14,10,9,11,3,1,5,6,8,13,7,4,15,12,2,16,
14,10,9,11,3,1,5,6,8,13,7,4,15,12,2,16,
14,10,9,11,3,7,5,6,8,13,1,4,15,12,2,16,
14,10,9,11,3,7,5,6,8,13,1,15,4,12,2,16,
14,10,9,11,3,7,5,6,8,13,1,15,4,12,2,16,
14,10,9,11,3,7,5,6,8,12,1,15,4,13,2,16,
14,10,9,11,3,7,5,6,8,12,1,15,4,13,2,16,
14,10,9,11,3,7,5,6,8,12,1,15,4,13,2,16,
14,10,9,1,3,7,5,6,8,12,11,15,4,13,2,16,
14,10,9,1,3,7,5,6,8,12,11,16,4,13,2,15,
14,10,9,1,3,7,5,6,8,12,11,16,4,13,2,15,
14,10,9,1,3,7,5,6,8,12,11,16,4,13,2,15,
14,10,9,1,3,7,5,6,8,12,11,16,4,13,2,15,
14,10,9,1,3,7,5,6,8,2,11,16,4,13,12,15,
14,10,9,1,3,7,5,6,8,2,11,16,4,13,12,15,
14,10,9,1,3,7,5,6,8,2,11,16,4,13,12,15,
14,10,9,1,3,7,5,6,8,2,11,16,4,13,12,15,
14,10,9,1,3,5,7,6,8,2,11,16,4,13,12,15,
14,10,9,1,3,5,7,6,8,2,11,16,4,13,12,15,
14,10,9,1,3,5,7,6,8,2,11,16,4,13,12,15,
14,10,9,1,3,5,7,6,8,2,11,16,4,13,12,15,
14,10,9,1,3,5,7,6,8,2,11,13,4,16,12,15,
14,10,9,1,3,5,7,6,8,2,11,13,12,16,4,15,
14,10,9,1,3,5,7,6,8,12,11,13,2,16,4,15,
14,10,9,1,3,5,7,6,8,12,11,13,2,16,4,15,
14,10,9,1,3,5,7,6,8,12,11,13,2,16,4,15,
14,10,9,1,3,5,7,6,8,12,11,13,2,16,4,15,
14,10,9,1,3,5,7,6,8,12,11,13,2,16,4,15,
14,10,9,1,3,5,7,6,8,15,11,13,2,16,4,12,
14,10,9,1,3,5,7,6,8,15,11,13,2,16,4,12,
14,10,9,1,3,5,7,6,8,15,11,13,2,16,4,12,
2,10,9,1,3,5,7,6,8,15,11,13,14,16,4,12,
2,10,9,1,3,5,7,6,8,15,11,13,14,16,4,12,
2,10,9,1,3,5,7,6,8,15,11,13,14,16,4,12,
2,10,9,1,3,5,7,6,8,15,11,13,14,16,4,12,
2,10,9,1,3,5,7,6,8,15,11,13,14,16,4,12,
2,10,9,1,3,5,7,6,8,15,11,13,14,16,4,12,
2,10,9,1,3,5,7,6,8,15,11,13,14,16,4,12,
2,10,9,1,3,5,7,6,8,15,11,13,14,16,4,12,
2,10,9,1,3,5,7,6,8,15,11,13,14,16,4,12,
2,10,9,1,3,5,7,6,8,15,11,13,14,16,4,12,
2,10,9,1,3,5,7,6,8,15,11,13,14,16,4,12,
2,10,9,1,3,5,7,6,8,15,11,13,14,16,4,12,
2,10,9,1,3,7,5,6,8,15,11,13,14,16,4,12,
2,10,9,1,3,7,5,6,8,15,11,13,14,16,4,12,
2,10,9,1,3,7,5,6,8,15,11,13,14,16,4,12,
14,10,9,1,3,7,5,6,8,15,11,13,2,16,4,12,
14,10,9,1,3,7,5,6,8,15,11,13,2,16,4,12,
14,10,9,1,3,7,5,6,8,15,11,13,2,16,4,12,
14,10,9,1,3,7,5,6,8,15,11,13,2,16,4,12,
14,10,9,1,3,7,5,6,8,12,11,13,2,16,4,15,
14,10,9,1,3,7,5,6,8,12,11,13,2,16,4,15,
14,10,9,1,3,7,5,6,8,12,11,13,2,16,4,15,
14,10,9,1,3,7,5,6,8,12,11,13,2,16,4,15,
14,10,9,11,3,7,5,6,8,12,1,13,2,16,4,15,
14,10,9,11,3,7,5,6,8,12,1,13,2,16,4,15,
14,10,9,11,3,7,5,6,8,1,12,13,2,16,4,15,
14,10,9,11,3,7,5,6,8,1,12,13,2,16,4,15,
14,10,9,11,3,7,5,6,8,1,12,13,2,16,4,15,
14,10,9,11,3,7,5,6,8,1,12,13,2,16,4,15,
14,10,9,11,3,7,5,6,8,1,12,13,2,16,4,15,
14,10,9,11,3,7,5,6,8,1,12,13,2,16,4,15,
14,10,9,11,3,7,5,6,8,1,12,13,2,16,4,15,
14,10,9,11,3,7,5,6,8,16,12,13,2,1,4,15,
14,10,9,11,3,7,5,6,8,16,15,13,2,1,4,12,
14,10,9,11,3,7,5,6,8,16,15,13,2,1,4,12,
14,10,9,11,3,1,5,6,8,16,15,13,2,7,4,12,
14,10,9,11,3,1,5,6,8,16,12,13,2,7,4,15,
14,10,9,11,3,1,5,6,8,16,12,13,2,7,4,15,
14,10,9,11,3,1,5,6,8,16,12,13,2,7,4,15,
14,10,9,11,3,1,5,6,8,16,12,13,2,7,4,15,
14,10,9,11,3,1,5,6,8,16,12,13,2,7,4,15,
14,10,9,11,3,1,5,6,8,16,12,13,2,7,4,15,
14,10,9,11,3,1,5,6,8,16,12,13,2,7,4,15,
14,10,9,11,3,1,5,6,8,16,12,13,2,7,4,15,
14,10,9,11,3,1,5,6,8,16,12,13,2,7,4,15,
14,10,9,11,3,1,5,6,8,16,12,13,2,7,4,15,
14,10,9,11,3,1,5,6,8,16,12,7,2,13,4,15,
14,10,9,11,3,1,5,6,8,16,12,7,2,13,4,15,
14,10,9,11,3,1,5,6,8,16,12,7,2,13,4,15,
14,13,9,11,3,1,5,6,8,16,12,7,2,10,4,15,
14,13,9,11,3,1,5,6,8,16,12,7,2,10,4,15,
14,13,9,11,3,1,5,6,8,16,12,7,2,10,4,15,
14,13,9,11,3,1,5,6,8,16,12,7,2,10,4,15,
14,13,9,11,3,1,5,6,8,16,12,7,2,10,4,15,
14,13,9,11,3,1,5,6,8,16,12,7,2,10,4,15,
14,13,9,11,3,1,5,6,8,16,12,7,2,10,4,15,
14,13,9,11,3,1,5,6,8,16,12,7,2,10,4,15,
14,13,9,11,3,1,5,6,8,4,12,7,2,10,16,15,
14,13,15,11,3,1,5,6,8,4,12,7,2,10,16,9,
14,13,15,11,3,1,5,6,8,4,12,7,2,10,16,9,
14,13,15,11,3,1,5,6,8,4,12,7,2,10,16,9,
14,13,15,11,3,1,5,6,8,4,12,7,2,10,16,9,
14,13,15,11,3,1,5,6,8,4,12,7,2,10,16,9,
14,13,15,11,3,1,5,6,8,4,12,7,2,10,16,9,
14,13,15,11,3,1,5,6,8,4,12,7,2,10,16,9,
14,13,15,11,3,1,5,6,8,4,12,7,2,10,16,9,
14,13,15,11,3,1,5,6,8,4,12,9,2,10,16,7,
14,13,15,11,3,1,5,6,8,4,12,9,2,10,16,7,
14,13,9,11,3,1,5,6,8,4,12,15,2,10,16,7,
14,13,9,11,3,1,5,6,8,4,12,15,2,10,16,7,
14,13,9,11,3,1,5,6,8,4,12,15,2,10,16,7,
14,13,9,11,3,1,5,6,8,4,12,15,2,10,16,7,
14,13,9,11,3,1,5,6,8,4,12,15,2,10,16,7,
14,13,9,11,3,1,5,6,2,4,12,15,8,10,16,7,
14,13,9,11,3,1,5,6,2,4,12,15,8,10,16,7,
14,13,9,11,3,1,5,6,2,4,12,15,8,10,16,7,
14,13,9,11,3,1,5,6,2,4,12,15,7,10,16,8,
14,13,9,11,3,1,5,6,2,4,12,15,7,10,16,8,
14,13,9,11,3,1,5,6,2,4,12,15,7,10,16,8,
14,13,9,11,3,1,5,6,2,4,12,15,7,16,10,8,
14,13,9,11,3,1,5,6,2,4,12,16,7,15,10,8,
14,13,9,11,3,1,5,6,2,4,12,16,7,15,10,8,
14,13,9,11,3,1,5,6,2,4,12,16,7,15,10,8,
14,13,9,11,3,1,5,6,2,4,12,16,7,15,10,8,
14,13,9,11,3,1,5,6,2,4,12,16,7,8,10,15,
14,13,9,11,3,1,5,6,2,4,12,8,7,16,10,15,
14,13,9,11,3,1,5,6,2,4,12,8,7,16,10,15,
14,13,9,11,3,1,5,6,2,8,12,4,7,16,10,15,
14,13,9,11,3,1,5,6,2,8,12,4,7,16,10,15,
14,13,9,11,3,1,5,6,2,8,12,4,7,16,10,15,
14,13,9,11,3,1,5,6,2,8,12,4,7,16,10,15,
14,13,9,11,3,1,5,6,2,8,12,4,7,16,10,15,
14,13,9,11,3,1,5,6,2,8,12,4,7,16,10,15,
14,13,9,11,3,1,5,6,2,8,12,4,7,16,10,15,
